NAME: archivos8
TYPE: TSP
COMMENT: 8-Staedte in archivos8 (Zaw Win)
DIMENSION: 8
EDGE_WEIGHT_TYPE: GEO
EDGE_WEIGHT_FORMAT: FUNCTION
DISPLAY_DATA_TYPE: COORD_DISPLAY
NODE_COORD_SECTION
1 1.0 0.0
2 1.0 10.0
3 2.0 10.0
4 2.0 0.0
5 3.0 0.0
6 4.0 0.0
7 5.0 0.0
8 6.0 0.0
EOF